NAME : portcgen-24-10
COMMENT : portcgen N=24, seed=10
TYPE : TSP
DIMENSION : 24
EDGE_WEIGHT_TYPE : EUC_2D
NODE_COORD_SECTION
1 -193934 323685
2 212429 142764
3 86552 87100
4 258626 -94966
5 13689 -56779
6 -39680 -9192
7 210357 47270
8 79761 91087
9 -317611 14080
10 -213233 203374
11 55355 -237378
12 -59069 71199
13 -233714 -199643
14 -130718 209546
15 103904 -77448
16 -247243 -126914
17 287416 25666
18 27576 -332503
19 -123406 -144160
20 29714 646642
21 -80914 32647
22 -71696 -161749
23 -248215 15764
24 206706 -9139
